\ Model Staff Scheduling Problem with Break Time Constraints
\ LP format - for model browsing. Use MPS format to capture full model detail.
Minimize
  23.65358919797536 x[0,0] + 23.65358919797536 x[0,1]
   + 23.65358919797536 x[0,2] + 31.97008782761849 x[1,0]
   + 31.97008782761849 x[1,1] + 31.97008782761849 x[1,2]
   + 43.95886921408059 x[2,0] + 43.95886921408059 x[2,1]
   + 43.95886921408059 x[2,2] + 15.8896948117706 x[3,0]
   + 15.8896948117706 x[3,1] + 15.8896948117706 x[3,2]
   + 33.62048529479064 x[4,0] + 33.62048529479064 x[4,1]
   + 33.62048529479064 x[4,2] + 24.34888766542089 x[5,0]
   + 24.34888766542089 x[5,1] + 24.34888766542089 x[5,2]
   + 37.0621675689853 x[6,0] + 37.0621675689853 x[6,1]
   + 37.0621675689853 x[6,2] + 27.36582298902232 x[7,0]
   + 27.36582298902232 x[7,1] + 27.36582298902232 x[7,2]
   + 20.64154180690568 x[8,0] + 20.64154180690568 x[8,1]
   + 20.64154180690568 x[8,2] + 41.34403394180951 x[9,0]
   + 41.34403394180951 x[9,1] + 41.34403394180951 x[9,2]
Subject To
 shift_0_requirement: x[0,0] + x[1,0] + x[2,0] + x[3,0] + x[4,0] + x[5,0]
   + x[6,0] + x[7,0] + x[8,0] + x[9,0] >= 9
 shift_1_requirement: x[0,1] + x[1,1] + x[2,1] + x[3,1] + x[4,1] + x[5,1]
   + x[6,1] + x[7,1] + x[8,1] + x[9,1] >= 8
 shift_2_requirement: x[0,2] + x[1,2] + x[2,2] + x[3,2] + x[4,2] + x[5,2]
   + x[6,2] + x[7,2] + x[8,2] + x[9,2] >= 3
 availability_0_0: x[0,0] <= 3.183950283541647
 availability_0_1: x[0,1] <= 0.9417333279360225
 availability_0_2: x[0,2] <= 6.110332931143263
 availability_1_0: x[1,0] <= 7.778740459180325
 availability_1_1: x[1,1] <= 0.2441626573762861
 availability_1_2: x[1,2] <= 3.535914729470885
 availability_2_0: x[2,0] <= 5.994212461466005
 availability_2_1: x[2,1] <= 2.476014051536301
 availability_2_2: x[2,2] <= 7.544252097290269
 availability_3_0: x[3,0] <= 5.795210196263215
 availability_3_1: x[3,1] <= 4.159950232907001
 availability_3_2: x[3,2] <= 1.76317878519166
 availability_4_0: x[4,0] <= 5.361172477158505
 availability_4_1: x[4,1] <= 4.819200808278323
 availability_4_2: x[4,2] <= 2.894413748394822
 availability_5_0: x[5,0] <= 1.951694363267534
 availability_5_1: x[5,1] <= 7.600522787583382
 availability_5_2: x[5,2] <= 1.108184496000955
 availability_6_0: x[6,0] <= 7.176526103088455
 availability_6_1: x[6,1] <= 6.056097687333779
 availability_6_2: x[6,2] <= 6.68776999823886
 availability_7_0: x[7,0] <= 7.847493367475356
 availability_7_1: x[7,1] <= 6.624108851139082
 availability_7_2: x[7,2] <= 7.17800637153881
 availability_8_0: x[8,0] <= 7.680164301840792
 availability_8_1: x[8,1] <= 7.09826175353425
 availability_8_2: x[8,2] <= 0.9424422372339993
 availability_9_0: x[9,0] <= 1.1396502198129
 availability_9_1: x[9,1] <= 5.561144385711422
 availability_9_2: x[9,2] <= 4.880056109079612
 break_time_0: b[0] >= 1.073650832171514
 total_time_0: x[0,0] + x[0,1] + x[0,2] + b[0] <= 10.23601654262093
 break_time_1: b[1] >= 1.067444164433152
 total_time_1: x[1,0] + x[1,1] + x[1,2] + b[1] <= 11.5588178460275
 break_time_2: b[2] >= 1.110387418013284
 total_time_2: x[2,0] + x[2,1] + x[2,2] + b[2] <= 16.01447861029257
 break_time_3: b[3] >= 0.6092062397688039
 total_time_3: x[3,0] + x[3,1] + x[3,2] + b[3] <= 11.71833921436188
 break_time_4: b[4] >= 1.743822040594728
 total_time_4: x[4,0] + x[4,1] + x[4,2] + b[4] <= 13.07478703383165
 break_time_5: b[5] >= 0.522399647851967
 total_time_5: x[5,0] + x[5,1] + x[5,2] + b[5] <= 10.66040164685187
 break_time_6: b[6] >= 1.222893615909764
 total_time_6: x[6,0] + x[6,1] + x[6,2] + b[6] <= 19.92039378866109
 break_time_7: b[7] >= 1.138930709267997
 total_time_7: x[7,0] + x[7,1] + x[7,2] + b[7] <= 21.64960859015325
 break_time_8: b[8] >= 1.508017430051575
 total_time_8: x[8,0] + x[8,1] + x[8,2] + b[8] <= 15.72086829260904
 break_time_9: b[9] >= 1.528506601776408
 total_time_9: x[9,0] + x[9,1] + x[9,2] + b[9] <= 11.58085071460393
Bounds
End
